c This is an instance of the exact track of PACE 2020 Challenge, see https://pacechallenge.org/2020/ 
c TYPE: biology 
c ORIGIN: networkrepository.com 
c DESCRIPTION: ENZYMES is a dataset of protein tertiary structures obtained from (Borgwardt et al., 2005)  consisting of 600 enzymes from the BRENDA enzyme database (Schomburg et al., 2004). Refernces: K. M. Borgwardt, C. S. Ong, S. Schoenauer, S. V. N. Vishwanathan, A. J. Smola, and H. P. Kriegel. Protein function prediction via graph kernels. Bioinformatics, 21(Suppl 1):i47–i56, Jun 2005. I. Schomburg, A. Chang, C. Ebeling, M. Gremse, C. Heldt, G. Huhn, and D. Schomburg. Brenda, the enzyme database: updates and major new developments. Nucleic Acids Research, 32D:431–433, 2013 
p tdp 41 76
1 2
1 3
1 4
2 3
2 4
3 4
4 5
5 6
5 7
6 7
6 8
7 8
8 9
8 10
9 11
9 12
9 13
10 11
10 12
10 13
11 12
11 14
11 13
12 14
12 13
14 15
14 16
14 17
15 16
15 17
16 17
17 18
18 21
18 41
18 22
19 20
19 23
19 24
20 21
20 22
21 41
21 22
22 41
23 24
23 25
24 25
25 26
25 27
25 28
26 29
26 30
26 28
27 29
27 28
28 29
29 30
29 31
30 31
31 32
31 33
32 33
32 37
33 37
34 35
34 36
34 38
34 39
34 40
35 36
35 37
36 38
36 39
36 40
37 39
38 40
39 40
